n_res = 5;
rcap = [31, 34, 33, 41, 62];
rtype = [1, 1, 1, 2, 2];
n_tasks = 16;
modes = [ {1, 2, 3}, {4, 5, 6}, {7, 8, 9}, {10, 11, 12}, {13, 14, 15}, {16, 17, 18}, {19, 20, 21}, {22, 23, 24}, {25, 26, 27}, {28, 29, 30}, {31, 32, 33}, {34, 35, 36}, {37, 38, 39}, {40, 41, 42}, {43, 44, 45}, {46, 47, 48} ];
succ = [ {7, 8, 13}, {5, 9, 12}, {4, 8, 12}, {6, 11, 15}, {6, 11}, {13}, {9, 10, 12}, {10}, {15}, {14, 15}, {13}, {14, 16}, {14, 16}, {}, {}, {} ];
n_opt = 48;
dur = [3, 6, 10, 2, 5, 8, 3, 5, 10, 3, 9, 10, 2, 3, 7, 2, 3, 7, 4, 5, 8, 4, 5, 7, 1, 4, 5, 3, 9, 10, 2, 2, 10, 2, 7, 9, 4, 8, 9, 2, 4, 7, 3, 6, 7, 4, 8, 8];
rreq = [|  6,  3,  3,  8,  6,  5,  5,  4,  3,  3,  3,  1,  8,  7,  2,  3,  2,  1,  9,  7,  5,  6,  4,  3,  6,  6,  5,  7,  7,  7,  5,  7,  2,  8,  5,  3,  9,  5,  5, 10,  8,  7,  2,  2,  1,  3,  3,  2
        |  9,  8,  6,  7,  4,  3,  8,  8,  7,  8,  7,  5,  3,  3,  3,  8,  8,  8,  6,  6,  6,  5,  4,  3,  4,  4,  4,  5,  4,  3,  8,  9,  8,  8,  8,  7,  9,  4,  3,  4,  3,  1,  7,  7,  7,  3,  2,  1
        |  4,  2,  2,  8,  8,  7,  9,  8,  8,  3,  2,  1, 10,  8,  4,  9,  8,  6,  7,  6,  3,  7,  5,  2,  3,  3,  2,  4,  4,  4, 10,  9,  8,  3,  3,  2,  7,  6,  4,  4,  4,  3,  7,  6,  3,  6,  2,  5
        |  8,  6,  0,  7,  0,  7,  3,  0,  1,  0,  8,  8,  0,  4,  2,  8,  0,  7,  0,  7,  5,  0,  0,  0,  6,  0,  0,  7,  0,  0,  0,  0,  0,  0,  0,  0,  7,  7,  0,  0,  0,  9,  2,  0,  0,  6,  0,  5
        |  0,  0,  8,  0,  2,  0,  0,  4,  0,  6,  0,  0,  7,  0,  0,  0, 10,  0,  6,  0,  0, 10,  6,  5,  0, 10,  7,  0,  6,  2,  6,  6,  5,  7,  6,  5,  0,  0,  6,  9,  7,  0,  0,  4,  3,  0,  8,  0 |];
